1000
120 120
1 84 82
2 84 746
3 84 422
4 84 736
5 84 221
6 84 637
7 84 461
8 84 166
9 84 528
10 84 930
11 84 588
12 84 216
13 84 286
14 84 521
15 83 955
16 83 524
17 83 159
18 83 933
19 83 478
20 83 509
21 83 487
22 83 424
23 83 874
24 83 71
25 83 982
26 83 230
27 82 712
28 82 863
29 82 408
30 82 371
31 82 386
32 82 322
33 82 847
34 82 137
35 82 814
36 81 559
37 81 339
38 81 4
39 81 848
40 81 749
41 81 719
42 81 640
43 81 288
44 81 174
45 80 84
46 80 823
47 80 766
48 80 812
49 80 693
50 80 282
51 80 434
52 80 55
53 80 313
54 80 97
55 80 549
56 80 33
57 79 945
58 79 660
59 79 24
60 79 1
61 79 410
62 79 338
63 79 184
64 79 713
65 79 190
66 79 736
67 79 714
68 79 137
69 79 390
70 79 894
71 79 449
72 79 123
73 79 841
74 78 819
75 78 618
76 78 774
77 78 150
78 78 205
79 78 712
80 78 793
81 78 577
82 78 207
83 78 789
84 78 976
85 78 15
86 78 231
87 78 449
88 78 83
89 78 672
90 78 227
91 78 551
92 78 474
93 78 438
94 78 703
95 78 39
96 78 553
97 78 803
98 77 958
99 77 913
100 77 648
101 77 655
102 77 944
103 77 572
104 77 784
105 77 6
106 77 38
107 76 923
108 76 198
109 76 989
110 76 646
111 76 1000
112 76 865
113 76 170
114 76 179
115 76 481
116 76 883
117 76 10
118 76 857
119 76 986
120 76 440
121 76 615
122 75 587
123 75 941
124 75 446
125 75 109
126 75 776
127 75 669
128 75 544
129 75 769
130 75 96
131 75 748
132 75 261
133 75 771
134 75 289
135 75 768
136 75 682
137 75 668
138 75 552
139 74 343
140 74 826
141 74 272
142 74 867
143 74 671
144 74 26
145 74 652
146 74 279
147 74 698
148 74 552
149 74 194
150 74 427
151 74 342
152 74 181
153 74 564
154 73 83
155 73 713
156 73 531
157 73 541
158 73 524
159 73 692
160 73 342
161 73 1000
162 73 451
163 73 91
164 73 906
165 73 690
166 73 339
167 73 210
168 73 93
169 73 775
170 73 957
171 73 306
172 73 263
173 73 865
174 73 52
175 73 509
176 73 481
177 73 586
178 72 346
179 72 861
180 72 952
181 72 660
182 72 271
183 72 356
184 72 557
185 72 703
186 72 860
187 72 248
188 72 6
189 72 22
190 72 552
191 72 741
192 72 374
193 72 429
194 71 866
195 71 237
196 71 129
197 71 66
198 71 548
199 71 397
200 71 770
201 71 34
202 71 700
203 71 590
204 71 484
205 71 119
206 70 14
207 70 973
208 70 742
209 70 607
210 70 818
211 70 769
212 70 410
213 70 479
214 70 530
215 69 905
216 69 525
217 69 595
218 69 419
219 69 416
220 69 836
221 69 773
222 69 594
223 69 344
224 69 941
225 69 64
226 68 544
227 68 878
228 68 195
229 68 67
230 68 432
231 68 120
232 68 478
233 67 42
234 67 274
235 67 573
236 67 73
237 67 408
238 67 519
239 67 804
240 67 402
241 67 901
242 67 339
243 67 352
244 67 413
245 66 987
246 66 822
247 66 651
248 66 548
249 66 693
250 66 588
251 66 504
252 66 499
253 66 48
254 66 416
255 66 208
256 66 833
257 66 335
258 66 243
259 66 471
260 66 677
261 65 737
262 65 692
263 65 548
264 65 178
265 65 917
266 65 622
267 65 439
268 65 947
269 65 557
270 65 371
271 65 212
272 65 734
273 64 760
274 64 695
275 64 500
276 64 607
277 64 479
278 64 205
279 64 19
280 64 975
281 64 122
282 64 703
283 63 591
284 63 675
285 63 908
286 63 565
287 63 887
288 63 579
289 63 740
290 63 814
291 63 753
292 63 724
293 63 731
294 63 373
295 63 189
296 63 65
297 62 175
298 62 469
299 62 273
300 62 477
301 62 153
302 62 287
303 62 278
304 62 393
305 62 178
306 62 62
307 61 633
308 61 695
309 61 379
310 61 544
311 61 116
312 61 51
313 61 443
314 61 48
315 61 189
316 61 880
317 61 272
318 60 817
319 60 629
320 60 133
321 60 739
322 60 949
323 60 644
324 60 550
325 60 254
326 60 795
327 59 580
328 59 317
329 59 927
330 59 609
331 59 913
332 59 265
333 59 667
334 59 405
335 59 966
336 59 824
337 59 435
338 59 425
339 59 924
340 59 438
341 59 978
342 58 183
343 58 913
344 58 230
345 58 918
346 58 114
347 58 436
348 58 516
349 58 132
350 58 678
351 58 430
352 58 447
353 58 724
354 58 991
355 58 970
356 58 85
357 58 661
358 58 515
359 57 416
360 57 957
361 57 26
362 57 250
363 57 42
364 57 33
365 57 917
366 57 671
367 57 544
368 57 554
369 57 761
370 57 843
371 57 814
372 57 34
373 56 803
374 56 520
375 56 565
376 56 564
377 56 21
378 56 233
379 56 573
380 56 75
381 56 635
382 56 196
383 56 843
384 56 392
385 56 101
386 56 533
387 55 212
388 55 132
389 55 499
390 55 755
391 55 328
392 55 294
393 55 736
394 55 43
395 55 445
396 55 381
397 55 681
398 55 885
399 55 714
400 55 493
401 55 785
402 55 177
403 55 910
404 55 382
405 55 544
406 54 835
407 54 360
408 54 994
409 54 228
410 54 839
411 54 234
412 54 198
413 54 812
414 54 297
415 54 746
416 54 369
417 54 923
418 54 62
419 54 710
420 54 322
421 54 670
422 53 198
423 53 878
424 53 493
425 53 936
426 53 621
427 53 675
428 52 978
429 52 601
430 52 628
431 52 637
432 52 503
433 52 291
434 51 423
435 51 195
436 51 640
437 51 211
438 51 190
439 51 413
440 51 608
441 51 863
442 51 267
443 51 485
444 51 308
445 51 26
446 51 812
447 51 634
448 51 235
449 51 385
450 50 375
451 50 651
452 50 414
453 50 812
454 50 584
455 50 461
456 50 841
457 50 299
458 50 188
459 50 806
460 49 610
461 49 488
462 49 561
463 49 151
464 49 603
465 49 383
466 49 569
467 49 616
468 49 689
469 49 501
470 49 935
471 49 771
472 49 431
473 48 278
474 48 917
475 48 493
476 48 983
477 48 536
478 48 227
479 48 846
480 48 964
481 48 780
482 48 873
483 48 542
484 48 413
485 48 318
486 48 12
487 48 799
488 48 563
489 48 183
490 48 625
491 48 320
492 48 823
493 47 953
494 47 320
495 47 808
496 47 18
497 47 796
498 47 622
499 47 803
500 47 188
501 47 886
502 47 821
503 47 606
504 46 186
505 46 796
506 46 664
507 46 990
508 46 141
509 46 500
510 46 456
511 46 16
512 46 226
513 45 328
514 45 863
515 45 637
516 45 139
517 45 819
518 45 236
519 45 834
520 45 213
521 45 32
522 45 307
523 45 74
524 45 617
525 45 310
526 45 899
527 45 214
528 45 688
529 44 257
530 44 237
531 44 656
532 44 353
533 44 752
534 44 386
535 44 395
536 44 730
537 44 845
538 44 682
539 44 106
540 44 585
541 44 514
542 44 513
543 44 499
544 44 387
545 43 803
546 43 835
547 43 749
548 43 457
549 43 772
550 43 474
551 43 954
552 43 746
553 43 782
554 43 979
555 43 337
556 42 30
557 42 295
558 42 214
559 42 166
560 42 938
561 42 868
562 42 599
563 42 699
564 42 465
565 42 853
566 42 650
567 42 162
568 42 188
569 42 919
570 42 130
571 42 250
572 42 914
573 42 255
574 42 25
575 42 92
576 41 907
577 41 732
578 41 186
579 41 540
580 41 743
581 41 741
582 41 844
583 41 89
584 41 376
585 40 463
586 40 50
587 40 147
588 40 126
589 40 620
590 40 302
591 40 811
592 40 988
593 40 5
594 40 864
595 40 612
596 40 501
597 40 467
598 40 647
599 40 686
600 39 549
601 39 991
602 39 573
603 39 437
604 39 289
605 39 475
606 39 763
607 39 432
608 39 401
609 39 264
610 39 118
611 39 871
612 39 876
613 39 401
614 39 917
615 39 634
616 38 990
617 38 915
618 38 740
619 38 347
620 38 549
621 38 511
622 38 89
623 37 341
624 37 325
625 37 698
626 37 998
627 37 668
628 37 445
629 37 749
630 37 476
631 37 172
632 37 200
633 37 878
634 37 98
635 37 634
636 36 775
637 36 334
638 36 837
639 36 657
640 36 126
641 36 561
642 36 721
643 36 324
644 36 559
645 36 384
646 36 668
647 36 97
648 36 794
649 36 409
650 36 251
651 36 221
652 36 962
653 36 174
654 35 836
655 35 916
656 35 15
657 35 413
658 35 592
659 35 152
660 35 46
661 35 720
662 35 663
663 35 718
664 35 22
665 35 251
666 34 714
667 34 273
668 34 586
669 34 879
670 34 345
671 34 894
672 34 828
673 34 209
674 34 25
675 33 493
676 33 284
677 33 554
678 33 990
679 33 842
680 33 498
681 33 840
682 33 182
683 33 258
684 33 254
685 33 660
686 33 232
687 32 844
688 32 889
689 32 837
690 32 443
691 32 265
692 32 313
693 32 11
694 32 279
695 32 704
696 32 727
697 32 222
698 32 431
699 32 604
700 32 167
701 32 730
702 32 885
703 32 914
704 32 958
705 32 784
706 32 364
707 32 324
708 32 598
709 32 117
710 31 417
711 31 354
712 31 298
713 31 203
714 31 261
715 31 161
716 31 632
717 31 466
718 31 816
719 31 899
720 31 845
721 31 813
722 31 533
723 31 992
724 31 710
725 30 798
726 30 653
727 30 179
728 30 625
729 30 226
730 30 387
731 30 816
732 30 809
733 30 574
734 30 130
735 30 420
736 30 20
737 30 942
738 30 27
739 29 885
740 29 528
741 29 121
742 29 427
743 29 848
744 29 393
745 29 155
746 29 482
747 29 507
748 29 467
749 29 60
750 29 260
751 29 730
752 29 504
753 29 79
754 28 291
755 28 82
756 28 691
757 28 876
758 28 685
759 28 306
760 28 595
761 28 9
762 28 866
763 28 932
764 28 301
765 28 524
766 28 577
767 28 669
768 27 266
769 27 969
770 27 319
771 27 468
772 27 19
773 27 60
774 27 453
775 27 512
776 27 119
777 27 330
778 27 585
779 27 911
780 27 596
781 26 419
782 26 907
783 26 919
784 26 21
785 26 844
786 26 541
787 26 107
788 26 873
789 26 362
790 25 639
791 25 824
792 25 449
793 25 866
794 25 576
795 25 887
796 25 52
797 25 511
798 25 501
799 25 881
800 25 682
801 25 860
802 25 866
803 25 211
804 25 816
805 24 440
806 24 57
807 24 949
808 24 332
809 24 177
810 24 321
811 24 237
812 24 52
813 24 93
814 24 246
815 24 690
816 24 2
817 24 973
818 24 160
819 24 110
820 24 815
821 24 657
822 23 589
823 23 415
824 23 638
825 23 966
826 23 975
827 23 363
828 23 498
829 23 128
830 23 760
831 23 867
832 23 782
833 23 428
834 22 23
835 22 357
836 22 536
837 22 861
838 22 588
839 22 961
840 22 445
841 22 480
842 22 611
843 22 11
844 22 476
845 22 814
846 22 786
847 22 118
848 22 632
849 22 567
850 22 300
851 22 415
852 21 751
853 21 984
854 21 600
855 21 89
856 21 183
857 21 3
858 21 212
859 21 344
860 21 33
861 21 720
862 21 424
863 21 884
864 21 775
865 21 789
866 21 533
867 21 833
868 21 39
869 21 155
870 20 153
871 20 805
872 20 477
873 20 933
874 20 288
875 20 612
876 20 843
877 20 529
878 20 480
879 20 761
880 20 26
881 20 759
882 19 63
883 19 4
884 19 815
885 19 954
886 19 831
887 19 959
888 19 801
889 19 139
890 19 50
891 19 822
892 19 877
893 19 928
894 18 936
895 18 876
896 18 410
897 18 759
898 18 150
899 18 531
900 18 518
901 18 603
902 18 461
903 18 51
904 18 691
905 18 874
906 18 152
907 18 148
908 18 203
909 18 929
910 18 913
911 18 40
912 18 904
913 18 808
914 18 15
915 17 538
916 17 312
917 17 971
918 17 690
919 17 877
920 17 342
921 17 524
922 17 658
923 17 282
924 17 695
925 17 621
926 17 781
927 17 407
928 17 890
929 17 797
930 17 807
931 16 1
932 16 979
933 16 591
934 16 560
935 16 244
936 16 797
937 16 359
938 16 795
939 16 323
940 16 44
941 16 227
942 16 770
943 16 528
944 16 457
945 16 231
946 15 933
947 15 250
948 15 427
949 15 996
950 15 149
951 15 216
952 15 409
953 15 960
954 15 303
955 15 604
956 15 533
957 15 318
958 15 155
959 15 862
960 15 613
961 15 601
962 15 783
963 15 46
964 15 672
965 15 465
966 14 517
967 14 95
968 14 266
969 14 74
970 14 64
971 14 830
972 14 522
973 14 230
974 14 820
975 14 336
976 14 465
977 14 623
978 13 641
979 13 581
980 13 204
981 13 497
982 13 840
983 13 722
984 13 990
985 13 110
986 13 829
987 12 293
988 12 883
989 12 131
990 12 115
991 12 948
992 12 102
993 12 392
994 12 534
995 12 853
996 12 127
997 12 570
998 12 230
999 12 588
1000 12 544
